* #variable= 27 #constraint= 141 #equal= 0 intsize= 6
+1 x2 +1 ~x1 >= 1 ;
+1 x4 +1 ~x3 >= 1 ;
+1 x6 +1 ~x5 >= 1 ;
+1 x8 +1 ~x7 >= 1 ;
+1 x10 +1 ~x9 >= 1 ;
+1 x12 +1 ~x11 >= 1 ;
+1 x14 +1 ~x13 >= 1 ;
+1 x16 +1 ~x15 >= 1 ;
+1 x18 +1 ~x17 >= 1 ;
+1 x20 +1 ~x19 >= 1 ;
+1 x22 +1 ~x21 >= 1 ;
+1 x24 +1 ~x23 >= 1 ;
+1 x26 +1 ~x25 >= 1 ;
+531440 ~x1 +531440 ~x2 +177144 ~x3 +177144 ~x4 +59040 ~x5 +59040 ~x6 +19656 ~x7 +19656 ~x8 +6480 ~x9 +6480 ~x10 +1944 ~x11 +1944 ~x12 +1944 x15 +1944 x16 +6480 x17 +6480 x18 +19656 x19 +19656 x20 +59040 x21 +59040 x22 +177144 x23 +177144 x24 +531440 x25 +531440 x26 +3182817 x27 >= 1591409 ;
+531440 x1 +531440 x2 +177144 x3 +177144 x4 +59040 x5 +59040 x6 +19656 x7 +19656 x8 +6480 x9 +6480 x10 +1944 x11 +1944 x12 +1944 ~x15 +1944 ~x16 +6480 ~x17 +6480 ~x18 +19656 ~x19 +19656 ~x20 +59040 ~x21 +59040 ~x22 +177144 ~x23 +177144 ~x24 +531440 ~x25 +531440 ~x26 +3182817 ~x27 >= 1591409 ;
+1 ~x1 +1 ~x1 +1 ~x3 >= 1 ;
+1 x1 +1 ~x2 +1 x1 +1 ~x2 +1 x3 +1 ~x4 >= 1 ;
+1 x2 +1 x2 +1 x4 >= 1 ;
+1 ~x1 +1 ~x3 +1 ~x5 >= 1 ;
+1 x1 +1 ~x2 +1 x3 +1 ~x4 +1 x5 +1 ~x6 >= 1 ;
+1 x2 +1 x4 +1 x6 >= 1 ;
+1 ~x1 +1 ~x5 +1 ~x7 >= 1 ;
+1 x1 +1 ~x2 +1 x5 +1 ~x6 +1 x7 +1 ~x8 >= 1 ;
+1 x2 +1 x6 +1 x8 >= 1 ;
+1 ~x1 +1 ~x7 +1 ~x9 >= 1 ;
+1 x1 +1 ~x2 +1 x7 +1 ~x8 +1 x9 +1 ~x10 >= 1 ;
+1 x2 +1 x8 +1 x10 >= 1 ;
+1 ~x1 +1 ~x9 +1 ~x11 >= 1 ;
+1 x1 +1 ~x2 +1 x9 +1 ~x10 +1 x11 +1 ~x12 >= 1 ;
+1 x2 +1 x10 +1 x12 >= 1 ;
+1 ~x1 +1 ~x11 +1 ~x13 >= 1 ;
+1 x1 +1 ~x2 +1 x11 +1 ~x12 +1 x13 +1 ~x14 >= 1 ;
+1 x2 +1 x12 +1 x14 >= 1 ;
+1 ~x1 +1 ~x13 +1 ~x15 >= 1 ;
+1 x1 +1 ~x2 +1 x13 +1 ~x14 +1 x15 +1 ~x16 >= 1 ;
+1 x2 +1 x14 +1 x16 >= 1 ;
+1 ~x1 +1 ~x15 +1 ~x17 >= 1 ;
+1 x1 +1 ~x2 +1 x15 +1 ~x16 +1 x17 +1 ~x18 >= 1 ;
+1 x2 +1 x16 +1 x18 >= 1 ;
+1 ~x1 +1 ~x17 +1 ~x19 >= 1 ;
+1 x1 +1 ~x2 +1 x17 +1 ~x18 +1 x19 +1 ~x20 >= 1 ;
+1 x2 +1 x18 +1 x20 >= 1 ;
+1 ~x1 +1 ~x19 +1 ~x21 >= 1 ;
+1 x1 +1 ~x2 +1 x19 +1 ~x20 +1 x21 +1 ~x22 >= 1 ;
+1 x2 +1 x20 +1 x22 >= 1 ;
+1 ~x1 +1 ~x21 +1 ~x23 >= 1 ;
+1 x1 +1 ~x2 +1 x21 +1 ~x22 +1 x23 +1 ~x24 >= 1 ;
+1 x2 +1 x22 +1 x24 >= 1 ;
+1 ~x1 +1 ~x23 +1 ~x25 >= 1 ;
+1 x1 +1 ~x2 +1 x23 +1 ~x24 +1 x25 +1 ~x26 >= 1 ;
+1 x2 +1 x24 +1 x26 >= 1 ;
+1 ~x3 +1 ~x3 +1 ~x7 >= 1 ;
+1 x3 +1 ~x4 +1 x3 +1 ~x4 +1 x7 +1 ~x8 >= 1 ;
+1 x4 +1 x4 +1 x8 >= 1 ;
+1 ~x3 +1 ~x5 +1 ~x9 >= 1 ;
+1 x3 +1 ~x4 +1 x5 +1 ~x6 +1 x9 +1 ~x10 >= 1 ;
+1 x4 +1 x6 +1 x10 >= 1 ;
+1 ~x3 +1 ~x7 +1 ~x11 >= 1 ;
+1 x3 +1 ~x4 +1 x7 +1 ~x8 +1 x11 +1 ~x12 >= 1 ;
+1 x4 +1 x8 +1 x12 >= 1 ;
+1 ~x3 +1 ~x9 +1 ~x13 >= 1 ;
+1 x3 +1 ~x4 +1 x9 +1 ~x10 +1 x13 +1 ~x14 >= 1 ;
+1 x4 +1 x10 +1 x14 >= 1 ;
+1 ~x3 +1 ~x11 +1 ~x15 >= 1 ;
+1 x3 +1 ~x4 +1 x11 +1 ~x12 +1 x15 +1 ~x16 >= 1 ;
+1 x4 +1 x12 +1 x16 >= 1 ;
+1 ~x3 +1 ~x13 +1 ~x17 >= 1 ;
+1 x3 +1 ~x4 +1 x13 +1 ~x14 +1 x17 +1 ~x18 >= 1 ;
+1 x4 +1 x14 +1 x18 >= 1 ;
+1 ~x3 +1 ~x15 +1 ~x19 >= 1 ;
+1 x3 +1 ~x4 +1 x15 +1 ~x16 +1 x19 +1 ~x20 >= 1 ;
+1 x4 +1 x16 +1 x20 >= 1 ;
+1 ~x3 +1 ~x17 +1 ~x21 >= 1 ;
+1 x3 +1 ~x4 +1 x17 +1 ~x18 +1 x21 +1 ~x22 >= 1 ;
+1 x4 +1 x18 +1 x22 >= 1 ;
+1 ~x3 +1 ~x19 +1 ~x23 >= 1 ;
+1 x3 +1 ~x4 +1 x19 +1 ~x20 +1 x23 +1 ~x24 >= 1 ;
+1 x4 +1 x20 +1 x24 >= 1 ;
+1 ~x3 +1 ~x21 +1 ~x25 >= 1 ;
+1 x3 +1 ~x4 +1 x21 +1 ~x22 +1 x25 +1 ~x26 >= 1 ;
+1 x4 +1 x22 +1 x26 >= 1 ;
+1 ~x5 +1 ~x5 +1 ~x11 >= 1 ;
+1 x5 +1 ~x6 +1 x5 +1 ~x6 +1 x11 +1 ~x12 >= 1 ;
+1 x6 +1 x6 +1 x12 >= 1 ;
+1 ~x5 +1 ~x7 +1 ~x13 >= 1 ;
+1 x5 +1 ~x6 +1 x7 +1 ~x8 +1 x13 +1 ~x14 >= 1 ;
+1 x6 +1 x8 +1 x14 >= 1 ;
+1 ~x5 +1 ~x9 +1 ~x15 >= 1 ;
+1 x5 +1 ~x6 +1 x9 +1 ~x10 +1 x15 +1 ~x16 >= 1 ;
+1 x6 +1 x10 +1 x16 >= 1 ;
+1 ~x5 +1 ~x11 +1 ~x17 >= 1 ;
+1 x5 +1 ~x6 +1 x11 +1 ~x12 +1 x17 +1 ~x18 >= 1 ;
+1 x6 +1 x12 +1 x18 >= 1 ;
+1 ~x5 +1 ~x13 +1 ~x19 >= 1 ;
+1 x5 +1 ~x6 +1 x13 +1 ~x14 +1 x19 +1 ~x20 >= 1 ;
+1 x6 +1 x14 +1 x20 >= 1 ;
+1 ~x5 +1 ~x15 +1 ~x21 >= 1 ;
+1 x5 +1 ~x6 +1 x15 +1 ~x16 +1 x21 +1 ~x22 >= 1 ;
+1 x6 +1 x16 +1 x22 >= 1 ;
+1 ~x5 +1 ~x17 +1 ~x23 >= 1 ;
+1 x5 +1 ~x6 +1 x17 +1 ~x18 +1 x23 +1 ~x24 >= 1 ;
+1 x6 +1 x18 +1 x24 >= 1 ;
+1 ~x5 +1 ~x19 +1 ~x25 >= 1 ;
+1 x5 +1 ~x6 +1 x19 +1 ~x20 +1 x25 +1 ~x26 >= 1 ;
+1 x6 +1 x20 +1 x26 >= 1 ;
+1 ~x7 +1 ~x7 +1 ~x15 >= 1 ;
+1 x7 +1 ~x8 +1 x7 +1 ~x8 +1 x15 +1 ~x16 >= 1 ;
+1 x8 +1 x8 +1 x16 >= 1 ;
+1 ~x7 +1 ~x9 +1 ~x17 >= 1 ;
+1 x7 +1 ~x8 +1 x9 +1 ~x10 +1 x17 +1 ~x18 >= 1 ;
+1 x8 +1 x10 +1 x18 >= 1 ;
+1 ~x7 +1 ~x11 +1 ~x19 >= 1 ;
+1 x7 +1 ~x8 +1 x11 +1 ~x12 +1 x19 +1 ~x20 >= 1 ;
+1 x8 +1 x12 +1 x20 >= 1 ;
+1 ~x7 +1 ~x13 +1 ~x21 >= 1 ;
+1 x7 +1 ~x8 +1 x13 +1 ~x14 +1 x21 +1 ~x22 >= 1 ;
+1 x8 +1 x14 +1 x22 >= 1 ;
+1 ~x7 +1 ~x15 +1 ~x23 >= 1 ;
+1 x7 +1 ~x8 +1 x15 +1 ~x16 +1 x23 +1 ~x24 >= 1 ;
+1 x8 +1 x16 +1 x24 >= 1 ;
+1 ~x7 +1 ~x17 +1 ~x25 >= 1 ;
+1 x7 +1 ~x8 +1 x17 +1 ~x18 +1 x25 +1 ~x26 >= 1 ;
+1 x8 +1 x18 +1 x26 >= 1 ;
+1 ~x9 +1 ~x9 +1 ~x19 >= 1 ;
+1 x9 +1 ~x10 +1 x9 +1 ~x10 +1 x19 +1 ~x20 >= 1 ;
+1 x10 +1 x10 +1 x20 >= 1 ;
+1 ~x9 +1 ~x11 +1 ~x21 >= 1 ;
+1 x9 +1 ~x10 +1 x11 +1 ~x12 +1 x21 +1 ~x22 >= 1 ;
+1 x10 +1 x12 +1 x22 >= 1 ;
+1 ~x9 +1 ~x13 +1 ~x23 >= 1 ;
+1 x9 +1 ~x10 +1 x13 +1 ~x14 +1 x23 +1 ~x24 >= 1 ;
+1 x10 +1 x14 +1 x24 >= 1 ;
+1 ~x9 +1 ~x15 +1 ~x25 >= 1 ;
+1 x9 +1 ~x10 +1 x15 +1 ~x16 +1 x25 +1 ~x26 >= 1 ;
+1 x10 +1 x16 +1 x26 >= 1 ;
+1 ~x11 +1 ~x11 +1 ~x23 >= 1 ;
+1 x11 +1 ~x12 +1 x11 +1 ~x12 +1 x23 +1 ~x24 >= 1 ;
+1 x12 +1 x12 +1 x24 >= 1 ;
+1 ~x11 +1 ~x13 +1 ~x25 >= 1 ;
+1 x11 +1 ~x12 +1 x13 +1 ~x14 +1 x25 +1 ~x26 >= 1 ;
+1 x12 +1 x14 +1 x26 >= 1 ;

